written by TR 
1.000000000 
76.244872046 0.000000000 0.000000000 
38.122436023 66.029996100 0.000000000 
0.000000000 0.000000000 18.399999600 
C 
1922
Cartesian 
113.80500000 65.66870000 9.21326000 
76.92070000 1.77974000 9.25906000 
40.03480000 65.66570000 9.25649000 
1.91219000 1.06407000 9.27341000 
3.14943000 1.77600000 9.32496000 
3.14819000 3.20331000 9.37915000 
78.15700000 3.91902000 9.36803000 
79.38870000 6.05145000 9.58938000 
42.50890000 65.66250000 9.32371000 
4.38578000 1.06069000 9.34695000 
5.62229000 1.77218000 9.41643000 
5.61999000 3.19855000 9.48768000 
4.38364000 3.91339000 9.47426000 
4.37982000 5.33649000 9.59281000 
5.61108000 6.04016000 9.75792000 
5.60106000 7.45120000 9.97312000 
80.60920000 8.16386000 9.98368000 
81.81380000 10.24570000 10.54820000 
44.98240000 65.65960000 9.41366000 
6.85873000 1.05747000 9.44376000 
8.09425000 1.76871000 9.52929000 
8.09083000 3.19391000 9.61792000 
6.85394000 3.90739000 9.60650000 
6.84805000 5.32739000 9.75485000 
8.07710000 6.02820000 9.94502000 
8.06420000 7.43309000 10.19490000 
6.82540000 8.14153000 10.22110000 
6.80721000 9.53578000 10.52350000 
8.02718000 10.21640000 10.81490000 
8.00716000 11.60890000 11.12570000 
83.01350000 12.31840000 11.15210000 
84.22310000 14.41220000 11.64920000 
47.45510000 65.65720000 9.52280000 
9.33089000 1.05480000 9.55924000 
10.56530000 1.76615000 9.65708000 
10.56090000 3.19013000 9.76112000 
9.32321000 3.90183000 9.75539000 
9.31545000 5.31852000 9.93043000 
10.54290000 6.01767000 10.13530000 
10.52830000 7.41756000 10.41040000 
9.28735000 8.12112000 10.45450000 
9.26786000 9.51148000 10.77320000 
10.48940000 10.19520000 11.05000000 
10.47060000 11.59030000 11.34820000 
9.23026000 12.29590000 11.38500000 
9.21580000 13.70190000 11.62800000 
10.44480000 14.40310000 11.80340000 
10.43790000 15.82280000 11.94040000 
85.44640000 16.53300000 11.95850000 
86.67860000 18.66880000 12.04970000 
49.92680000 65.65580000 9.64598000 
11.80220000 1.05317000 9.68707000 
13.03560000 1.76510000 9.79240000 
13.03040000 3.18805000 9.90805000 
11.79190000 3.89780000 9.91046000 
11.78280000 5.31154000 10.10640000 
13.00930000 6.01068000 10.31610000 
12.99410000 7.40722000 10.60700000 
11.75140000 8.10599000 10.66900000 
11.73210000 9.49499000 10.99320000 
12.95510000 10.18360000 11.25010000 
12.93780000 11.58200000 11.53250000 
11.69610000 12.28440000 11.57420000 
11.68350000 13.69560000 11.78300000 
12.91350000 14.40300000 11.92140000 
12.90770000 15.82600000 12.01010000 
11.67080000 16.53430000 12.00940000 
11.66950000 17.95930000 12.03000000 
12.90290000 18.67170000 11.99380000 
12.90330000 20.09380000 11.91310000 
87.91250000 20.80290000 11.93810000 
89.14350000 22.92780000 11.69260000 
52.39760000 65.65580000 9.77744000 
14.27280000 1.05303000 9.82056000 
15.50520000 1.76610000 9.92828000 
15.49950000 3.18844000 10.05060000 
14.26030000 3.89640000 10.06220000 
14.25040000 5.30803000 10.27200000 
15.47660000 6.00879000 10.47860000 
15.46170000 7.40362000 10.77760000 
14.21760000 8.09823000 10.85650000 
14.19930000 9.48736000 11.18060000 
15.42330000 10.18120000 11.41810000 
15.40720000 11.58210000 11.68920000 
14.16440000 12.28220000 11.73190000 
14.15290000 13.69720000 11.91270000 
15.38250000 14.40850000 12.03370000 
15.37710000 15.83300000 12.08870000 
14.14020000 16.53990000 12.05280000 
14.13910000 17.96410000 12.01740000 
15.37290000 18.67620000 11.98140000 
15.37340000 20.09440000 11.84860000 
14.13620000 20.80040000 11.80280000 
14.13510000 22.21830000 11.66370000 
15.37000000 22.92000000 11.53020000 
15.36660000 24.33800000 11.38030000 
90.37300000 25.04800000 11.40600000 
91.60380000 27.17060000 11.14570000 
54.86750000 65.65750000 9.91201000 
16.74270000 1.05476000 9.95375000 
17.97430000 1.76950000 10.05920000 
17.96830000 3.19179000 10.18280000 
16.72860000 3.89843000 10.20310000 
16.71850000 5.30905000 10.41970000 
17.94450000 6.01272000 10.61720000 
17.93030000 7.40724000 10.91870000 
16.68560000 8.09856000 11.01380000 
16.66850000 9.48822000 11.33680000 
17.89270000 10.18700000 11.55860000 
17.87720000 11.58870000 11.82790000 
16.63350000 12.28710000 11.87340000 
16.62230000 13.70380000 12.04100000 
17.85060000 14.41770000 12.16360000 
17.84500000 15.84270000 12.20880000 
16.60880000 16.54840000 12.13570000 
16.60840000 17.97160000 12.06740000 
17.84220000 18.68510000 12.06550000 
17.84430000 20.10120000 11.90690000 
16.60930000 20.80150000 11.77520000 
16.60910000 22.21550000 11.59580000 
17.84780000 22.92080000 11.52910000 
17.84570000 24.33580000 11.34780000 
16.60490000 25.03950000 11.26520000 
16.59940000 26.46040000 11.13160000 
17.84000000 27.16460000 11.05180000 
17.83230000 28.58820000 10.93910000 
92.83550000 29.29830000 10.93620000 
94.06650000 31.43080000 10.77340000 
57.33660000 65.66100000 10.04590000 
19.21190000 1.05854000 10.08240000 
20.44280000 1.77530000 10.18180000 
20.43680000 3.19818000 10.30110000 
19.19690000 3.90418000 10.32840000 
19.18690000 5.31498000 10.54510000 
20.41280000 6.02241000 10.72960000 
20.39920000 7.41777000 11.02900000 
19.15450000 8.10677000 11.13960000 
19.13840000 9.49669000 11.46350000 
20.36240000 10.19990000 11.67310000 
20.34710000 11.60040000 11.95100000 
19.10270000 12.29700000 12.00700000 
19.09090000 13.71360000 12.17990000 
20.31750000 14.42930000 12.31440000 
20.31060000 15.85450000 12.37510000 
19.07500000 16.56000000 12.28070000 
19.07460000 17.98350000 12.20940000 
20.30640000 18.70010000 12.25530000 
20.30950000 20.11720000 12.09950000 
19.08050000 20.81210000 11.89420000 
19.08300000 22.22410000 11.69480000 
20.32040000 22.93540000 11.70290000 
20.32130000 24.34810000 11.50110000 
19.08610000 25.04290000 11.31280000 
19.08160000 26.46130000 11.14970000 
20.32140000 27.17170000 11.15100000 
20.31420000 28.59270000 11.00730000 
19.07310000 29.29580000 10.89410000 
19.06350000 30.72080000 10.79570000 
20.30290000 31.43170000 10.77810000 
20.29190000 32.85710000 10.68500000 
95.29570000 33.56670000 10.64280000 
96.52300000 35.70530000 10.53000000 
59.80490000 65.66630000 10.17710000 
21.68040000 1.06425000 10.20420000 
22.91090000 1.78310000 10.29520000 
22.90480000 3.20713000 10.40510000 
21.66500000 3.91340000 10.43630000 
21.65500000 5.32550000 10.64690000 
22.88090000 6.03698000 10.81630000 
22.86770000 7.43426000 11.10940000 
21.62360000 8.12205000 11.23410000 
21.60810000 9.51190000 11.56080000 
22.83190000 10.21890000 11.76020000 
22.81650000 11.61690000 12.05370000 
21.57150000 12.31140000 12.12950000 
21.55880000 13.72590000 12.32360000 
22.78390000 14.44310000 12.47010000 
22.77470000 15.86750000 12.56530000 
21.53830000 16.57360000 12.47650000 
21.53600000 17.99910000 12.43100000 
22.76470000 18.71860000 12.51910000 
22.76580000 20.13970000 12.39360000 
21.54230000 20.83320000 12.14900000 
21.54650000 22.24590000 11.95160000 
22.77820000 22.96370000 12.02580000 
22.78110000 24.37600000 11.82010000 
21.55740000 25.06230000 11.54340000 
21.55550000 26.47770000 11.35590000 
22.78840000 27.19570000 11.43220000 
22.78370000 28.61340000 11.25970000 
21.55160000 29.30680000 11.03960000 
21.54240000 30.72910000 10.90780000 
22.77660000 31.44660000 10.96360000 
22.76640000 32.86910000 10.83460000 
21.52930000 33.57110000 10.68710000 
21.51800000 34.99620000 10.59160000 
22.75320000 35.71270000 10.60660000 
22.74270000 37.13700000 10.50320000 
97.74910000 37.84550000 10.42380000 
98.97520000 39.98660000 10.31650000 
62.27240000 65.67280000 10.30560000 
24.14820000 1.07134000 10.31940000 
25.37840000 1.79206000 10.40070000 
25.37220000 3.21762000 10.49680000 
24.13280000 3.92519000 10.52800000 
24.12280000 5.33953000 10.72710000 
25.34870000 6.05474000 10.88130000 
25.33540000 7.45490000 11.16410000 
24.09220000 8.14297000 11.29900000 
24.07710000 9.53288000 11.62860000 
25.30060000 10.24290000 11.81900000 
25.28510000 11.63800000 12.13010000 
24.04020000 12.32990000 12.23160000 
24.02640000 13.74100000 12.45540000 
25.25080000 14.45930000 12.60880000 
25.23950000 15.88130000 12.74630000 
24.00070000 16.58790000 12.68830000 
23.99500000 18.01540000 12.68830000 
25.22180000 18.73660000 12.80020000 
25.21840000 20.16240000 12.72450000 
23.99430000 20.85960000 12.48870000 
23.99650000 22.27650000 12.31850000 
25.22310000 22.99850000 12.43290000 
25.22420000 24.41390000 12.24690000 
24.00930000 25.09720000 11.92570000 
24.00950000 26.51100000 11.72740000 
25.23320000 27.23620000 11.86050000 
25.23050000 28.65160000 11.67230000 
24.01230000 29.33540000 11.36360000 
24.00560000 30.75410000 11.19980000 
25.22980000 31.47980000 11.32240000 
25.22280000 32.89840000 11.15900000 
23.99730000 33.58990000 10.90640000 
23.98780000 35.01160000 10.77210000 
25.21590000 35.73510000 10.85260000 
25.20820000 37.15540000 10.70720000 
23.97630000 37.85550000 10.52530000 
23.96750000 39.27880000 10.41080000 
25.19990000 39.99850000 10.43490000 
25.19340000 41.42060000 10.30860000 
100.20200000 42.12780000 10.20340000 
101.43100000 44.26870000 10.08230000 
64.73900000 65.67980000 10.43350000 
26.61500000 1.07892000 10.43030000 
27.84520000 1.80094000 10.50240000 
27.83890000 3.22820000 10.58170000 
26.60020000 3.93806000 10.60770000 
26.58990000 5.35523000 10.79140000 
27.81600000 6.07324000 10.93300000 
27.80210000 7.47698000 11.20200000 
26.56000000 8.16720000 11.34050000 
26.54480000 9.55778000 11.67070000 
27.76840000 10.26970000 11.85460000 
27.75280000 11.66210000 12.18070000 
26.50870000 12.35230000 12.30650000 
26.49430000 13.75900000 12.56080000 
27.71870000 14.47770000 12.71590000 
27.70640000 15.89630000 12.89280000 
26.46510000 16.60250000 12.87810000 
26.45620000 18.03030000 12.92940000 
27.68330000 18.75260000 13.04460000 
27.67570000 20.18140000 13.02270000 
26.44540000 20.88420000 12.83680000 
26.44260000 22.30700000 12.71290000 
27.66890000 23.03010000 12.83090000 
27.66480000 24.45100000 12.68330000 
26.44750000 25.13900000 12.38170000 
26.44590000 26.55470000 12.19560000 
27.66600000 27.28300000 12.34330000 
27.66170000 28.69940000 12.16180000 
26.44970000 29.38060000 11.82360000 
26.44520000 30.79670000 11.64130000 
27.66140000 31.52880000 11.79900000 
27.65660000 32.94470000 11.61640000 
26.44350000 33.62740000 11.29090000 
26.43790000 35.04480000 11.12060000 
27.65660000 35.77620000 11.25260000 
27.65360000 37.19190000 11.06990000 
26.43460000 37.88080000 10.78960000 
26.42970000 39.29940000 10.62980000 
27.65540000 40.02580000 10.70810000 
27.65390000 41.44250000 10.53340000 
26.42540000 42.14070000 10.33060000 
26.42160000 43.56180000 10.19360000 
27.65380000 44.28170000 10.21020000 
27.65230000 45.70200000 10.06570000 
102.66200000 46.40890000 9.95350000 
103.89500000 48.54850000 9.81949000 
67.20460000 65.68640000 10.56540000 
29.08090000 1.08586000 10.54220000 
30.31130000 1.80836000 10.60770000 
30.30480000 3.23717000 10.66820000 
29.06710000 3.95012000 10.68330000 
29.05620000 5.37027000 10.84930000 
30.28270000 6.08967000 10.98350000 
30.26800000 7.49716000 11.23690000 
29.02690000 8.19143000 11.36990000 
29.01110000 9.58356000 11.69670000 
30.23510000 10.29570000 11.87910000 
30.21930000 11.68650000 12.21430000 
28.97650000 12.37650000 12.35660000 
28.96210000 13.77930000 12.63580000 
30.18730000 14.49750000 12.79050000 
30.17510000 15.91280000 12.99640000 
28.93270000 16.61800000 13.02320000 
28.92220000 18.04450000 13.11830000 
30.15110000 18.76740000 13.22190000 
30.14160000 20.19710000 13.24330000 
28.90440000 20.90390000 13.12550000 
28.89680000 22.33120000 13.05120000 
30.12640000 23.05430000 13.14170000 
30.11780000 24.47970000 13.03580000 
28.88990000 25.17620000 12.80400000 
28.88360000 26.59620000 12.64810000 
30.10820000 27.32330000 12.76250000 
30.09970000 28.74310000 12.60460000 
28.88010000 29.43040000 12.31050000 
28.87390000 30.84710000 12.13210000 
30.09250000 31.57970000 12.26930000 
30.08590000 32.99620000 12.09080000 
28.87180000 33.67910000 11.76910000 
28.86820000 35.09400000 11.58070000 
30.08410000 35.82940000 11.71980000 
30.08310000 37.24290000 11.52220000 
28.87190000 37.92470000 11.19470000 
28.87250000 39.33820000 10.99680000 
30.09160000 40.07120000 11.10940000 
30.09630000 41.48230000 10.89560000 
28.88000000 42.16880000 10.60310000 
28.88180000 43.58370000 10.41510000 
30.10900000 44.30910000 10.47300000 
30.11360000 45.72260000 10.27510000 
28.88520000 46.42100000 10.07470000 
28.88570000 47.84100000 9.92725000 
30.11970000 48.55870000 9.92789000 
30.12160000 49.97910000 9.78325000 
105.13100000 50.68760000 9.68486000 
106.36800000 52.82650000 9.55598000 
69.66880000 65.69170000 10.70860000 
31.54550000 1.09101000 10.66310000 
32.77640000 1.81303000 10.72660000 
32.76960000 3.24299000 10.76780000 
31.53340000 3.95942000 10.76550000 
31.52180000 5.38223000 10.91350000 
32.74860000 6.10134000 11.04810000 
32.73300000 7.51219000 11.28550000 
31.49300000 8.21192000 11.40310000 
31.47650000 9.60639000 11.72250000 
32.70070000 10.31700000 11.90910000 
32.68490000 11.70770000 12.24550000 
31.44360000 12.39960000 12.39240000 
31.42980000 13.79960000 12.68710000 
32.65620000 14.51640000 12.83970000 
32.64520000 15.92980000 13.05990000 
31.40300000 16.63420000 13.11880000 
31.39270000 18.05920000 13.24220000 
32.62370000 18.78230000 13.32290000 
32.61450000 20.21200000 13.36830000 
31.37290000 20.92010000 13.31800000 
31.36320000 22.34970000 13.28190000 
32.59640000 23.07240000 13.32380000 
32.58600000 24.50040000 13.24840000 
31.34810000 25.20350000 13.10890000 
31.33790000 26.62750000 12.98600000 
32.56900000 27.35150000 13.03230000 
32.55760000 28.77440000 12.90050000 
31.32500000 29.47130000 12.70090000 
31.31530000 30.89070000 12.54240000 
32.54210000 31.61860000 12.61020000 
32.53240000 33.03770000 12.45240000 
31.30600000 33.72910000 12.20690000 
31.30040000 35.14510000 12.02630000 
32.52270000 35.87730000 12.11740000 
32.51910000 37.29270000 11.93500000 
31.30060000 37.97830000 11.64360000 
31.30290000 39.39010000 11.43520000 
32.52250000 40.12450000 11.53890000 
32.52860000 41.53430000 11.31840000 
31.31700000 42.21450000 10.99350000 
31.32560000 43.62310000 10.76450000 
32.54870000 44.35340000 10.84660000 
32.56060000 45.75980000 10.60400000 
31.34270000 46.44610000 10.31920000 
31.34920000 47.85900000 10.11690000 
32.58050000 48.58000000 10.14630000 
32.58780000 49.99330000 9.94683000 
31.35660000 50.69530000 9.77610000 
31.35930000 52.11680000 9.64105000 
32.59550000 52.83150000 9.62816000 
32.59840000 54.25450000 9.50944000 
107.60700000 54.96560000 9.44007000 
108.84600000 57.10530000 9.34374000 
72.13120000 65.69510000 10.87310000 
34.00840000 1.09359000 10.80450000 
35.23960000 1.81417000 10.87290000 
35.23290000 3.24459000 10.89500000 
33.99860000 3.96428000 10.86800000 
33.98650000 5.38907000 10.99930000 
35.21340000 6.10619000 11.14310000 
35.19710000 7.51956000 11.36520000 
33.95830000 8.22529000 11.45810000 
33.94100000 9.62253000 11.76590000 
35.16550000 10.33010000 11.96160000 
35.15000000 11.72270000 12.28850000 
33.91010000 12.41840000 12.42770000 
33.89730000 13.81770000 12.72470000 
35.12550000 14.53290000 12.87030000 
35.11640000 15.94670000 13.08590000 
33.87500000 16.65070000 13.16690000 
33.86630000 18.07510000 13.29840000 
35.09930000 18.79830000 13.34300000 
35.09130000 20.22790000 13.38920000 
33.84810000 20.93520000 13.39970000 
33.83860000 22.36550000 13.38150000 
35.07310000 23.08740000 13.35670000 
35.06280000 24.51590000 13.29200000 
33.82000000 25.22230000 13.25060000 
33.80860000 26.64830000 13.15020000 
35.04210000 27.36850000 13.10350000 
35.03010000 28.79270000 12.98890000 
33.78940000 29.49750000 12.90950000 
33.77760000 30.91940000 12.77450000 
35.00930000 31.64040000 12.74090000 
34.99810000 33.06200000 12.61070000 
33.76080000 33.76420000 12.48740000 
33.75210000 35.18320000 12.33380000 
34.98140000 35.90790000 12.34110000 
34.97450000 37.32730000 12.19680000 
33.74330000 38.02350000 12.00410000 
33.74230000 39.43840000 11.82010000 
34.96800000 40.16760000 11.87510000 
34.97030000 41.58160000 11.68660000 
33.75030000 42.26720000 11.40690000 
33.76050000 43.67450000 11.17160000 
34.98440000 44.40500000 11.24710000 
34.99880000 45.80910000 10.99370000 
33.78650000 46.48720000 10.66930000 
33.80060000 47.89190000 10.41710000 
35.02970000 48.61560000 10.46460000 
35.04460000 50.01980000 10.21010000 
33.82130000 50.71140000 9.96217000 
33.82840000 52.12660000 9.77472000 
35.06380000 52.84200000 9.77832000 
35.06990000 54.26000000 9.61292000 
33.83550000 54.96800000 9.49418000 
33.83830000 56.39280000 9.39715000 
35.07600000 57.10560000 9.38354000 
35.07840000 58.53200000 9.31082000 
110.08600000 59.24550000 9.27157000 
111.32600000 61.38630000 9.22533000 
74.59080000 65.69650000 11.07010000 
36.46870000 1.09346000 10.98060000 
37.69980000 1.81184000 11.06210000 
37.69350000 3.24174000 11.06670000 
36.46180000 3.96369000 11.00710000 
36.44950000 5.38953000 11.12310000 
37.67570000 6.10327000 11.28450000 
37.65940000 7.51830000 11.49050000 
36.42200000 8.22939000 11.55120000 
36.40460000 9.62967000 11.84240000 
37.62920000 10.33400000 12.04630000 
37.61510000 11.73090000 12.34960000 
36.37630000 12.43080000 12.47180000 
36.36530000 13.83260000 12.75360000 
37.59560000 14.54730000 12.87950000 
37.58880000 15.96410000 13.06810000 
36.34830000 16.66750000 13.16470000 
36.34140000 18.09270000 13.28140000 
37.57510000 18.81590000 13.27250000 
37.56760000 20.24550000 13.29590000 
36.32520000 20.95090000 13.36040000 
36.31640000 22.38080000 13.33630000 
37.54750000 23.10100000 13.22810000 
37.53700000 24.52840000 13.15130000 
36.29540000 25.23530000 13.20380000 
36.28430000 26.66130000 13.10770000 
37.51150000 27.37690000 12.95190000 
37.49990000 28.80090000 12.84040000 
36.26110000 29.51000000 12.88760000 
36.24940000 30.93300000 12.77120000 
37.47610000 31.64770000 12.62310000 
37.46620000 33.07100000 12.52300000 
36.22870000 33.78090000 12.54110000 
36.21910000 35.20300000 12.42720000 
37.44840000 35.92080000 12.34190000 
37.44120000 37.34400000 12.25410000 
36.20410000 38.05050000 12.19030000 
36.19960000 39.47040000 12.05720000 
37.42940000 40.19260000 12.05310000 
37.42770000 41.61260000 11.92420000 
36.19710000 42.30910000 11.73540000 
36.20340000 43.72130000 11.53450000 
37.43160000 44.44680000 11.58050000 
37.44260000 45.85550000 11.35640000 
36.22540000 46.53660000 11.05590000 
36.24330000 47.93710000 10.78350000 
37.47300000 48.66060000 10.83050000 
37.49310000 50.05830000 10.54340000 
36.27680000 50.73940000 10.23960000 
36.29080000 52.14530000 9.99415000 
37.52580000 52.86100000 10.00760000 
37.53730000 54.27100000 9.78582000 
36.30680000 54.97340000 9.60921000 
36.31150000 56.39490000 9.47433000 
37.54940000 57.10720000 9.46915000 
37.55270000 58.53180000 9.36896000 
36.31650000 59.24450000 9.30257000 
36.31840000 60.67200000 9.25367000 
37.55670000 61.38440000 9.25363000 
37.55800000 62.81260000 9.22627000 
112.56600000 63.52750000 9.20522000 
77.04660000 65.69640000 11.30730000 
38.92510000 1.09141000 11.20410000 
40.15530000 1.80709000 11.30430000 
40.14990000 3.23547000 11.29480000 
38.92150000 3.95774000 11.19860000 
38.90950000 5.38358000 11.29960000 
40.13420000 6.09339000 11.48050000 
40.11900000 7.50971000 11.66540000 
38.88350000 8.22430000 11.69130000 
38.86710000 9.62828000 11.95720000 
40.09250000 10.33110000 12.15730000 
40.08100000 11.73500000 12.41810000 
38.84300000 12.43810000 12.52130000 
38.83450000 13.84560000 12.76610000 
40.06720000 14.56170000 12.85000000 
40.06170000 15.98330000 12.98860000 
38.82230000 16.68540000 13.09930000 
38.81610000 18.11240000 13.17870000 
40.04740000 18.83510000 13.09900000 
40.03780000 20.26400000 13.08030000 
38.79820000 20.96730000 13.19110000 
38.78800000 22.39580000 13.13870000 
40.00970000 23.11280000 12.93980000 
39.99570000 24.53770000 12.83290000 
38.76050000 25.24410000 12.96230000 
38.74810000 26.66860000 12.85170000 
39.96100000 27.37980000 12.59360000 
39.94850000 28.80290000 12.47570000 
38.71950000 29.51310000 12.62630000 
38.70920000 30.93660000 12.52270000 
39.92310000 31.64850000 12.28290000 
39.91720000 33.07350000 12.21530000 
38.68940000 33.78510000 12.35480000 
38.68300000 35.20970000 12.29030000 
39.90660000 35.92540000 12.13910000 
39.90400000 37.35070000 12.12020000 
38.67060000 38.06180000 12.17960000 
38.66590000 39.48580000 12.11750000 
39.89630000 40.20380000 12.07360000 
39.89370000 41.62800000 12.02200000 
38.65820000 42.33390000 11.93250000 
38.66000000 43.75270000 11.79170000 
39.89140000 44.47260000 11.81180000 
39.89780000 45.88800000 11.63990000 
38.67280000 46.57840000 11.39760000 
38.68860000 47.98190000 11.14270000 
39.92130000 48.70130000 11.17440000 
39.94130000 50.09910000 10.88870000 
38.72600000 50.77720000 10.57340000 
38.74600000 52.17430000 10.28300000 
39.98180000 52.88880000 10.29580000 
39.99930000 54.28920000 10.02110000 
38.77420000 54.98380000 9.78803000 
38.78250000 56.39960000 9.60451000 
40.02060000 57.11090000 9.60319000 
40.02580000 58.53230000 9.46652000 
38.79100000 59.24360000 9.36801000 
38.79310000 60.67030000 9.30152000 
40.03160000 61.38220000 9.30931000 
40.03270000 62.81010000 9.27271000 
38.79620000 63.52490000 9.23715000 
38.79680000 64.95340000 9.23010000 
79.49900000 65.69540000 11.57790000 
41.37720000 1.08878000 11.47420000 
42.60650000 1.80160000 11.58700000 
42.60200000 3.22798000 11.56970000 
41.37620000 3.94803000 11.44640000 
41.36550000 5.37306000 11.53030000 
42.58950000 6.08007000 11.71700000 
42.57710000 7.49823000 11.87000000 
41.34290000 8.21328000 11.86930000 
41.32930000 9.62246000 12.09540000 
42.55740000 10.32740000 12.26340000 
42.54920000 11.74030000 12.46020000 
41.31170000 12.44430000 12.55290000 
41.30550000 13.85980000 12.73740000 
42.53910000 14.57840000 12.75240000 
42.53240000 16.00420000 12.82390000 
41.29440000 16.70520000 12.95130000 
41.28620000 18.13340000 12.97610000 
42.51060000 18.85400000 12.81540000 
42.49550000 20.28070000 12.74480000 
41.26000000 20.98290000 12.89210000 
41.24490000 22.40860000 12.79760000 
42.45340000 23.12150000 12.51790000 
42.43360000 24.54310000 12.37770000 
41.20490000 25.24920000 12.55420000 
41.18880000 26.67150000 12.42130000 
42.38890000 27.38100000 12.10200000 
42.37610000 28.80420000 11.98380000 
41.15400000 29.51340000 12.18540000 
41.14590000 30.93800000 12.09560000 
42.35360000 31.65280000 11.82840000 
42.35340000 33.07960000 11.79730000 
41.13230000 33.78870000 11.99670000 
41.13240000 35.21480000 11.98610000 
42.35400000 35.93340000 11.82890000 
42.35840000 37.35810000 11.87980000 
41.13090000 38.06800000 12.01720000 
41.13040000 39.49280000 12.03670000 
42.36070000 40.21000000 11.99410000 
42.36020000 41.63440000 12.02450000 
41.12520000 42.34550000 12.01300000 
41.12480000 43.76890000 11.94430000 
42.35770000 44.48520000 11.95830000 
42.36090000 45.90610000 11.84520000 
41.13090000 46.60580000 11.66320000 
41.14270000 48.01540000 11.44710000 
42.37820000 48.73020000 11.46390000 
42.39520000 50.13230000 11.20130000 
41.17670000 50.81450000 10.90650000 
41.19880000 52.20790000 10.59900000 
42.43660000 52.91920000 10.60150000 
42.45810000 54.31240000 10.29230000 
41.23720000 55.00030000 10.02080000 
41.25020000 56.40810000 9.78550000 
42.48900000 57.11770000 9.78117000 
42.49710000 58.53430000 9.60289000 
41.26440000 59.24340000 9.46963000 
41.26730000 60.66870000 9.37965000 
42.50580000 61.38010000 9.39333000 
42.50710000 62.80760000 9.34451000 
41.27100000 63.52210000 9.29326000 
41.27120000 64.95050000 9.28437000 
81.95190000 65.69330000 11.84660000 
43.82880000 1.08637000 11.75810000 
45.05950000 1.79703000 11.85710000 
45.05540000 3.22196000 11.83890000 
43.82820000 3.93799000 11.72140000 
43.81980000 5.36218000 11.78430000 
45.04670000 6.06972000 11.93890000 
45.03810000 7.49069000 12.04650000 
43.80340000 8.20312000 12.04490000 
43.79390000 9.61897000 12.21260000 
45.02600000 10.32970000 12.30740000 
45.01940000 11.75080000 12.42420000 
43.78250000 12.45430000 12.52410000 
43.77640000 13.87700000 12.63140000 
45.00670000 14.59730000 12.55580000 
44.99510000 16.02460000 12.55490000 
43.75990000 16.72550000 12.70320000 
43.74620000 18.15300000 12.66620000 
44.95980000 18.86980000 12.42610000 
44.93720000 20.29300000 12.30730000 
43.70580000 20.99550000 12.47930000 
43.68370000 22.41750000 12.34360000 
44.88150000 23.12690000 12.01310000 
44.85820000 24.54680000 11.85670000 
43.63140000 25.25220000 12.04630000 
43.61310000 26.67360000 11.90390000 
44.81270000 27.38610000 11.58690000 
44.80370000 28.81140000 11.48920000 
43.57880000 29.51810000 11.68570000 
43.57510000 30.94480000 11.62120000 
44.78960000 31.66530000 11.39790000 
44.79510000 33.09340000 11.40730000 
43.57050000 33.79960000 11.60010000 
43.57730000 35.22600000 11.64140000 
44.80430000 35.94730000 11.53890000 
44.81390000 37.36950000 11.65060000 
43.58670000 38.07700000 11.80440000 
43.59140000 39.49910000 11.90050000 
44.82300000 40.21550000 11.90190000 
44.82530000 41.63710000 12.00260000 
43.59220000 42.35030000 12.03120000 
43.59190000 43.77520000 12.03240000 
44.82510000 44.48970000 12.06140000 
44.82730000 45.91360000 12.00080000 
43.59560000 46.62050000 11.86410000 
43.60410000 48.03580000 11.69160000 
44.84120000 48.74740000 11.70180000 
44.85530000 50.15460000 11.46910000 
43.63310000 50.84360000 11.20530000 
43.65420000 52.23810000 10.90350000 
44.89420000 52.94580000 10.89250000 
44.91690000 54.33580000 10.56980000 
43.69760000 55.02060000 10.28230000 
43.71500000 56.42030000 10.00300000 
44.95510000 57.12740000 9.98961000 
44.96640000 58.53810000 9.77096000 
43.73610000 59.24430000 9.60530000 
43.74040000 60.66750000 9.48764000 
44.97900000 61.37840000 9.50416000 
44.98070000 62.80520000 9.44078000 
43.74520000 63.51930000 9.37370000 
43.74520000 64.94760000 9.36219000 
84.41200000 65.69040000 12.04510000 
46.28740000 1.08411000 11.98200000 
47.52150000 1.79474000 12.02440000 
47.51780000 3.21946000 12.00820000 
46.28540000 3.93200000 11.94720000 
46.27940000 5.35615000 11.98510000 
47.51140000 6.06780000 12.05530000 
47.50500000 7.49171000 12.10980000 
46.26930000 8.20095000 12.14430000 
46.26240000 9.62299000 12.24030000 
47.49480000 10.33960000 12.22570000 
47.48580000 11.76520000 12.26130000 
46.25140000 12.46900000 12.38810000 
46.24140000 13.89540000 12.41460000 
47.46270000 14.61460000 12.24090000 
47.44340000 16.04050000 12.17560000 
46.21270000 16.74300000 12.34750000 
46.19120000 18.16780000 12.25440000 
47.39350000 18.87970000 11.95190000 
47.36530000 20.29990000 11.80410000 
46.13660000 21.00340000 11.98730000 
46.11000000 22.42290000 11.82940000 
47.30630000 23.13220000 11.49530000 
47.28600000 24.55350000 11.35450000 
46.05580000 25.25750000 11.52830000 
46.04090000 26.68080000 11.40420000 
47.25160000 27.39880000 11.14760000 
47.24870000 28.82660000 11.09010000 
46.01630000 29.53110000 11.24800000 
46.01820000 30.95970000 11.22140000 
47.24430000 31.68330000 11.08310000 
47.25350000 33.11110000 11.13600000 
46.02150000 33.81650000 11.28470000 
46.03240000 35.24160000 11.37390000 
47.26560000 35.96140000 11.35990000 
47.27670000 37.37950000 11.52120000 
46.04600000 38.08730000 11.64620000 
46.05350000 39.50490000 11.80230000 
47.28570000 40.21830000 11.87010000 
47.28950000 41.63640000 12.01730000 
46.05740000 42.35140000 12.04970000 
46.05830000 43.77550000 12.10470000 
47.29150000 44.48900000 12.15880000 
47.29410000 45.91430000 12.13600000 
46.06260000 46.62630000 12.02690000 
46.06940000 48.04570000 11.89270000 
47.30740000 48.75560000 11.90290000 
47.31940000 50.16730000 11.69870000 
46.09480000 50.86290000 11.46420000 
46.11380000 52.26080000 11.17890000 
47.35530000 52.96560000 11.15720000 
47.37750000 54.35580000 10.83490000 
46.15810000 55.04070000 10.54680000 
46.17850000 56.43410000 10.23750000 
47.41990000 57.13840000 10.21250000 
47.43420000 58.54330000 9.95962000 
46.20610000 59.24660000 9.76779000 
46.21220000 60.66690000 9.62138000 
47.45090000 61.37740000 9.63728000 
47.45340000 62.80330000 9.55816000 
46.21860000 63.51690000 9.47650000 
46.21850000 64.94510000 9.46146000 
86.87960000 65.68740000 12.09420000 
48.75510000 1.08239000 12.05590000 
49.98880000 1.79512000 12.00530000 
49.98540000 3.22067000 11.98900000 
48.75140000 3.93222000 12.02480000 
48.74630000 5.35725000 12.03590000 
49.97780000 6.07318000 11.98560000 
49.97010000 7.49905000 11.99010000 
48.73730000 8.20768000 12.09060000 
48.72870000 9.63329000 12.11600000 
49.95340000 10.35180000 11.97900000 
49.93800000 11.77820000 11.94650000 
48.70960000 12.48420000 12.11390000 
48.69240000 13.91060000 12.07050000 
49.90080000 14.62540000 11.80910000 
49.87450000 16.04870000 11.70030000 
48.64890000 16.75400000 11.89420000 
48.62110000 18.17570000 11.76460000 
49.81730000 18.88400000 11.43400000 
49.79020000 20.30420000 11.29080000 
48.56130000 21.00840000 11.46950000 
48.53670000 22.42860000 11.32260000 
49.74230000 23.14160000 11.03640000 
49.72950000 24.56640000 10.94000000 
48.49430000 25.26910000 11.08270000 
48.48620000 26.69550000 11.00170000 
49.71010000 27.41690000 10.83260000 
49.71200000 28.84580000 10.82460000 
48.47400000 29.54950000 10.93700000 
48.47990000 30.97850000 10.95570000 
49.71410000 31.70060000 10.91180000 
49.72420000 33.12600000 11.01140000 
48.48750000 33.83250000 11.10830000 
48.49920000 35.25440000 11.24330000 
49.73400000 35.96810000 11.32410000 
49.74340000 37.38170000 11.52430000 
48.51000000 38.09240000 11.60230000 
48.51740000 39.50580000 11.79760000 
49.74800000 40.21490000 11.92710000 
49.75250000 41.63170000 12.09350000 
48.52090000 42.34880000 12.10920000 
48.52350000 43.77200000 12.19370000 
49.75660000 44.48470000 12.26910000 
49.76070000 45.91080000 12.26670000 
48.52980000 46.62620000 12.17250000 
48.53630000 48.04830000 12.06700000 
49.77480000 48.75750000 12.07900000 
49.78580000 50.17260000 11.89910000 
48.55980000 50.87390000 11.68950000 
48.57690000 52.27570000 11.42380000 
49.81910000 52.97900000 11.39530000 
49.84020000 54.37110000 11.08140000 
48.62010000 55.05800000 10.80030000 
48.64180000 56.44760000 10.47440000 
49.88430000 57.14960000 10.43800000 