written by TR 
1.000000000 
76.244872046 0.000000000 0.000000000 
38.122436023 66.029996100 0.000000000 
0.000000000 0.000000000 50.000000000 
C 
1922
Cartesian 
0.00197200 0.00207972 21.95618306 
77.47450000 2.12844000 22.00000000 
2.45731000 0.00207241 21.94741967 
2.45731000 1.41966000 21.97809153 
3.68498000 2.12843000 21.78091529 
3.68502000 3.54603000 21.60783836 
78.70220000 4.25483000 21.62974684 
79.92990000 6.38131000 20.88266796 
4.91267000 0.00203116 21.52677702 
4.91267000 1.41966000 21.55744888 
6.14037000 2.12840000 21.17185979 
6.14044000 3.54607000 21.00535540 
4.91267000 4.25483000 21.22005842 
4.91279000 5.67247000 20.86295034 
6.14045000 6.38136000 20.31304771 
6.14069000 7.79907000 19.80477118 
81.15770000 8.50798000 19.82229796 
82.38560000 10.63500000 18.52750730 
7.36814000 0.00195592 20.74026290 
7.36813000 1.41967000 20.76874391 
8.59593000 2.12836000 20.22322298 
8.59603000 3.54614000 20.06767283 
7.36815000 4.25484000 20.45107108 
7.36833000 5.67257000 20.11368062 
8.59606000 6.38145000 19.42356378 
8.59641000 7.79930000 18.94595910 
7.36838000 8.50813000 19.13218111 
7.36879000 9.92599000 18.50998053 
8.59655000 10.63530000 17.75194742 
8.59718000 12.05340000 17.05525803 
83.61390000 12.76250000 17.07059396 
84.84240000 14.89060000 15.52823759 
9.82384000 0.00184818 19.64922103 
9.82382000 1.41970000 19.67551120 
11.05180000 2.12832000 19.00949367 
11.05190000 3.54625000 18.86708861 
9.82385000 4.25487000 19.38193768 
9.82411000 5.67275000 19.06645570 
11.05200000 6.38161000 18.27117819 
11.05240000 7.79963000 17.83081792 
9.82421000 8.50837000 18.15944499 
9.82476000 9.92639000 17.58106134 
11.05270000 10.63570000 16.73539435 
11.05350000 12.05400000 16.09128530 
9.82507000 12.76300000 16.24902629 
9.82595000 14.18140000 15.51290166 
11.05400000 14.89140000 14.69352483 
11.05520000 16.31010000 13.95082765 
86.07140000 17.01950000 13.96397274 
87.30100000 19.14920000 12.44133398 
12.27990000 0.00170987 18.33033106 
12.27990000 1.41973000 18.35443038 
13.50810000 2.12828000 17.60735151 
13.50830000 3.54640000 17.47590068 
12.28000000 4.25494000 18.08495618 
12.28030000 5.67300000 17.79576436 
13.50840000 6.38184000 16.93257059 
13.50890000 7.80007000 16.52726388 
12.28040000 8.50870000 16.96543330 
12.28110000 9.92694000 16.43305745 
13.50930000 10.63630000 15.52823759 
13.51020000 12.05480000 14.94109056 
12.28150000 12.76370000 15.21932814 
12.28260000 14.18230000 14.54673807 
13.51090000 14.89240000 13.68135346 
13.51230000 16.31140000 13.01095424 
12.28340000 17.02060000 13.14678676 
12.28490000 18.43980000 12.42818890 
13.51340000 19.15070000 11.67015579 
13.51520000 20.57030000 11.00194742 
88.53100000 21.27990000 11.01509250 
89.76160000 23.41150000 9.73125609 
14.73660000 0.00154629 16.86246349 
14.73660000 1.41977000 16.88437196 
15.96520000 2.12826000 16.09128530 
15.96530000 3.54660000 15.96859786 
14.73660000 4.25505000 16.63680623 
14.73700000 5.67332000 16.37171373 
15.96550000 6.38214000 15.47346641 
15.96610000 7.80060000 15.10102240 
14.73720000 8.50915000 15.61368062 
14.73800000 9.92761000 15.12731256 
15.96650000 10.63700000 14.19839338 
15.96750000 12.05580000 13.66382668 
14.73850000 12.76460000 14.03407984 
14.73980000 14.18340000 13.42283350 
15.96840000 14.89360000 12.54211295 
15.96990000 16.31280000 11.94182084 
14.74080000 17.02200000 12.18281402 
14.74250000 18.44140000 11.54308666 
15.97120000 19.15240000 10.77629017 
15.97320000 20.57230000 10.19352483 
14.74390000 21.28180000 10.31402142 
14.74600000 22.70180000 9.72030185 
15.97490000 23.41370000 9.12000974 
15.97730000 24.83410000 8.61830574 
90.99270000 25.54400000 8.62925998 
92.22420000 27.67720000 7.73758520 
17.19400000 0.00136405 15.31572541 
17.19400000 1.41981000 15.33544304 
18.42300000 2.12825000 14.53140214 
18.42320000 3.54683000 14.41747809 
17.19410000 4.25521000 15.10978578 
17.19440000 5.67371000 14.86222006 
18.42340000 6.38251000 13.96397274 
18.42400000 7.80123000 13.62000974 
17.19470000 8.50969000 14.17429406 
17.19560000 9.92840000 13.72955209 
18.42450000 10.63780000 12.80720545 
18.42560000 12.05690000 12.32083739 
17.19620000 12.76560000 12.75024343 
17.19760000 14.18470000 12.20034080 
18.42650000 14.89490000 11.33057449 
18.42810000 16.31440000 10.79819864 
17.19870000 17.02350000 11.11368062 
17.20050000 18.44320000 10.55282376 
18.42960000 19.15430000 9.80136319 
18.43170000 20.57440000 9.30185005 
17.20220000 21.28380000 9.50998053 
17.20440000 22.70410000 9.00608569 
18.43360000 23.41610000 8.42332035 
18.43600000 24.83670000 8.01582278 
17.20640000 25.54650000 8.12317429 
17.20890000 26.96730000 7.72882181 
18.43830000 27.68000000 7.34761441 
18.44100000 29.10100000 7.07156767 
93.45610000 29.81100000 7.08033106 
94.68830000 31.94530000 6.67064265 
19.65230000 0.00117230 13.75584226 
19.65230000 1.41987000 13.77336904 
20.88180000 2.12826000 12.98904576 
20.88200000 3.54710000 12.88169426 
19.65240000 4.25540000 13.56742941 
19.65280000 5.67416000 13.33958130 
20.88220000 6.38294000 12.46762415 
20.88280000 7.80192000 12.15214216 
19.65310000 8.51031000 12.71299903 
19.65400000 9.92929000 12.30550146 
20.88330000 10.63870000 11.41601753 
20.88450000 12.05800000 10.97565725 
19.65470000 12.76670000 11.43135346 
19.65610000 14.18610000 10.93841285 
20.88550000 14.89630000 10.10589094 
20.88710000 16.31610000 9.63485881 
19.65730000 17.02510000 9.99634859 
19.65920000 18.44510000 9.50778968 
20.88860000 19.15630000 8.79138267 
20.89080000 20.57660000 8.37074002 
19.66100000 21.28600000 8.64459591 
19.66330000 22.70650000 8.22614411 
20.89270000 23.41860000 7.67624148 
20.89520000 24.83940000 7.35856865 
19.66540000 25.54910000 7.54479065 
19.66800000 26.97010000 7.24683544 
20.89750000 27.68280000 6.89629990 
20.90020000 29.10400000 6.71445959 
19.67040000 29.81400000 6.81304771 
19.67320000 31.23530000 6.66187926 
20.90270000 31.94840000 6.53042843 
20.90560000 33.36970000 6.50632911 
95.92060000 34.07980000 6.51509250 
97.15300000 36.21430000 6.61806232 
22.11160000 0.00097856 12.24196689 
22.11160000 1.41993000 12.25949367 
23.34170000 2.12828000 11.52117819 
23.34180000 3.54738000 11.42259007 
22.11170000 4.25563000 12.07108082 
22.11210000 5.67465000 11.85856865 
23.34200000 6.38340000 11.04357352 
23.34260000 7.80266000 10.75000000 
22.11240000 8.51099000 11.28894839 
22.11330000 9.93025000 10.91431353 
23.34320000 10.63970000 10.08617332 
23.34430000 12.05920000 9.68524830 
22.11410000 12.76790000 10.13437196 
22.11550000 14.18750000 9.69182084 
23.34530000 14.89780000 8.92064265 
23.34690000 16.31790000 8.50657254 
22.11670000 17.02690000 8.88120740 
22.11860000 18.44710000 8.45837390 
23.34840000 19.15830000 7.80111977 
23.35050000 20.57880000 7.44620253 
22.12040000 21.28830000 7.75730282 
22.12270000 22.70900000 7.41991237 
23.35240000 23.42100000 6.92039922 
23.35480000 24.84200000 6.67940604 
22.12480000 25.55180000 6.92697176 
22.12740000 26.97290000 6.71665044 
23.35710000 27.68560000 6.40774099 
23.35980000 29.10700000 6.31572541 
22.12980000 29.81700000 6.49099318 
22.13260000 31.23830000 6.43403116 
23.36220000 31.95140000 6.33763389 
23.36490000 33.37280000 6.40774099 
22.13510000 34.08290000 6.50632911 
22.13790000 35.50420000 6.60929893 
23.36740000 36.21730000 6.73636806 
23.37010000 37.63860000 6.96859786 
98.38520000 38.34860000 6.97736125 
99.61730000 40.48250000 7.58641675 
24.57200000 0.00078973 10.83106134 
24.57200000 1.42000000 10.84858812 
25.80260000 2.12831000 10.18037975 
25.80270000 3.54766000 10.08836417 
24.57210000 4.25588000 10.67332035 
24.57250000 5.67516000 10.47614411 
25.80300000 6.38388000 9.73782863 
25.80350000 7.80339000 9.46616358 
24.57280000 8.51170000 9.95691334 
24.57360000 9.93122000 9.61075949 
25.80400000 10.64060000 8.86587147 
25.80510000 12.06050000 8.49780915 
24.57440000 12.76910000 8.91626095 
24.57570000 14.18900000 8.51752678 
25.80600000 14.89920000 7.82521908 
25.80750000 16.31960000 7.45715677 
24.57700000 17.02860000 7.82083739 
24.57870000 18.44900000 7.45496592 
25.80890000 19.16020000 6.87220058 
25.81090000 20.58100000 6.57424537 
24.58040000 21.29050000 6.89629990 
24.58260000 22.71140000 6.62682571 
25.81270000 23.42340000 6.19084713 
25.81490000 24.84460000 6.01996105 
24.58470000 25.55440000 6.30038948 
24.58720000 26.97570000 6.16893866 
25.81710000 27.68840000 5.91260954 
25.81950000 29.10980000 5.89946446 
24.58950000 29.81990000 6.13388510 
24.59210000 31.24130000 6.16455696 
25.82180000 31.95430000 6.10759494 
25.82430000 33.37570000 6.26533593 
24.59450000 34.08590000 6.44060370 
24.59710000 35.50720000 6.63777994 
25.82660000 36.22020000 6.79552093 
25.82910000 37.64140000 7.11976631 
24.59950000 38.35150000 7.22054528 
24.60200000 39.77250000 7.57765336 
25.83120000 40.48520000 7.94790652 
25.83360000 41.90590000 8.42112950 
100.84900000 42.61580000 8.43208374 
102.08000000 44.74840000 9.49245375 
27.03350000 0.00061395 9.56913340 
27.03340000 1.42007000 9.58446933 
28.26450000 2.12836000 9.00608569 
28.26470000 3.54793000 8.92064265 
27.03350000 4.25613000 9.42234664 
27.03390000 5.67566000 9.23831548 
28.26490000 6.38434000 8.59639727 
28.26540000 7.80408000 8.34225901 
27.03420000 8.51239000 8.76290166 
27.03500000 9.93217000 8.44303797 
28.26590000 10.64150000 7.79454722 
28.26670000 12.06160000 7.45496592 
27.03570000 12.77020000 7.81864654 
27.03680000 14.19040000 7.45715677 
28.26760000 14.90060000 6.85905550 
28.26890000 16.32110000 6.53042843 
27.03800000 17.03020000 6.85686465 
27.03960000 18.45090000 6.53919182 
28.27020000 19.16200000 6.04186952 
28.27190000 20.58300000 5.79430380 
27.04120000 21.29250000 6.10102240 
27.04320000 22.71370000 5.88851022 
28.27350000 23.42550000 5.52921130 
28.27550000 24.84690000 5.41528724 
27.04510000 25.55690000 5.70447907 
27.04730000 26.97830000 5.64094450 
28.27740000 27.69080000 5.44814995 
28.27950000 29.11240000 5.49853944 
27.04940000 29.82260000 5.76801363 
27.05180000 31.24410000 5.87536514 
28.28160000 31.95690000 5.86441091 
28.28380000 33.37840000 6.09664070 
27.05390000 34.08870000 6.33325219 
27.05630000 35.51000000 6.61587147 
28.28580000 36.22290000 6.80428432 
28.28800000 37.64400000 7.21178189 
27.05840000 38.35420000 7.39581305 
27.06080000 39.77520000 7.84274586 
28.28990000 40.48770000 8.23052580 
28.29190000 41.90830000 8.79138267 
27.06260000 42.61830000 8.90092502 
27.06480000 44.03860000 9.48149951 
28.29350000 44.75050000 10.05769231 
28.29540000 46.17040000 10.73247322 
103.31100000 46.88010000 10.74342746 
104.54100000 49.01090000 12.14556962 
29.49590000 0.00046024 8.49342746 
29.49590000 1.42013000 8.50876339 
30.72740000 2.12840000 8.03554041 
30.72760000 3.54817000 7.95228822 
29.49600000 4.25637000 8.35759494 
29.49630000 5.67611000 8.18232717 
30.72770000 6.38475000 7.64995131 
30.72810000 7.80469000 7.40895813 
29.49660000 8.51304000 7.74196689 
29.49720000 9.93303000 7.44401168 
30.72850000 10.64230000 6.90287244 
30.72930000 12.06260000 6.58739046 
29.49780000 12.77130000 6.87658228 
29.49880000 14.19170000 6.54795521 
30.73000000 14.90180000 6.05501461 
30.73110000 16.32250000 5.75486855 
29.49980000 17.03170000 6.02653359 
29.50120000 18.45260000 5.74829601 
30.73210000 19.16350000 5.34518014 
30.73350000 20.58470000 5.13485881 
29.50250000 21.29440000 5.40652386 
29.50420000 22.71570000 5.24221032 
30.73490000 23.42740000 4.96616358 
30.73650000 24.84890000 4.89605648 
29.50590000 25.55910000 5.17210321 
29.50780000 26.98060000 5.16333982 
30.73810000 27.69300000 5.03846154 
30.73980000 29.11460000 5.14143135 
29.50960000 29.82500000 5.42405063 
29.51160000 31.24660000 5.59493671 
30.74150000 31.95920000 5.63656280 
30.74330000 33.38070000 5.92794547 
29.51340000 34.09120000 6.20399221 
29.51550000 35.51260000 6.56110029 
30.74500000 36.22520000 6.77799416 
30.74680000 37.64630000 7.25559883 
29.51730000 38.35670000 7.50973710 
29.51930000 39.77750000 8.03554041 
30.74830000 40.48990000 8.43427459 
30.75000000 41.91040000 9.07181110 
29.52080000 42.62050000 9.27775073 
29.52260000 44.04070000 9.94157741 
30.75130000 44.75240000 10.50900682 
30.75280000 46.17210000 11.26046738 
29.52390000 46.88190000 11.38534567 
29.52550000 48.30140000 12.13242454 
30.75380000 49.01230000 12.84225901 
30.75500000 50.43140000 13.63972736 
105.77100000 51.14070000 13.65287244 
107.00100000 53.26970000 15.21275560 
31.95920000 0.00033357 7.63023369 
31.95920000 1.42018000 7.64556962 
33.19110000 2.12843000 7.28846154 
33.19120000 3.54837000 7.20959104 
31.95930000 4.25658000 7.50316456 
31.95950000 5.67650000 7.33666018 
33.19130000 6.38509000 6.92259007 
33.19160000 7.80519000 6.69255112 
31.95970000 8.51359000 6.92478092 
31.96020000 9.93376000 6.64216164 
33.19190000 10.64290000 6.21932814 
33.19250000 12.06340000 5.91918208 
31.96070000 12.77220000 6.12074002 
31.96150000 14.19280000 5.81402142 
33.19300000 14.90270000 5.43281402 
33.19380000 16.32360000 5.15457644 
31.96230000 17.03290000 5.35394352 
31.96340000 18.45400000 5.10637780 
33.19460000 19.16470000 4.80623174 
33.19560000 20.58600000 4.62220058 
31.96440000 21.29600000 4.83909445 
31.96580000 22.71740000 4.71202532 
33.19660000 23.42890000 4.52361246 
33.19780000 24.85050000 4.48636806 
31.96710000 25.56090000 4.73174294 
31.96860000 26.98250000 4.76460565 
33.19900000 27.69470000 4.70983447 
33.20030000 29.11630000 4.85223953 
31.97000000 29.82700000 5.12828627 
31.97160000 31.24860000 5.34737098 
33.20160000 31.96110000 5.44157741 
33.20290000 33.38260000 5.77896787 
31.97300000 34.09330000 6.07692308 
31.97470000 35.51460000 6.48880234 
33.20420000 36.22710000 6.74074976 
33.20550000 37.64810000 7.26874391 
31.97610000 38.35870000 7.57546251 
31.97760000 39.77950000 8.16480039 
33.20660000 40.49160000 8.57229796 
33.20790000 41.91200000 9.26679649 
31.97880000 42.62230000 9.55598832 
31.98030000 44.04240000 10.28992210 
33.20880000 44.75390000 10.83982473 
33.21000000 46.17350000 11.65481986 
31.98120000 46.88340000 11.89143135 
31.98240000 48.30270000 12.70861733 
33.21060000 49.01350000 13.37463486 
33.21160000 50.43240000 14.23563778 
31.98310000 51.14190000 14.38023369 
31.98410000 52.56050000 15.19741967 
33.21200000 53.27050000 15.93792600 
33.21270000 54.68880000 16.75073028 
108.22900000 55.39790000 16.76387537 
109.45800000 57.52550000 18.24269718 
34.42320000 0.00023936 7.00365141 
34.42320000 1.42022000 7.01679649 
35.65530000 2.12846000 6.78456670 
35.65540000 3.54851000 6.70788705 
34.42320000 4.25674000 6.88096397 
34.42340000 5.67680000 6.72103213 
35.65550000 6.38533000 6.43184031 
35.65570000 7.80554000 6.20837390 
34.42350000 8.51401000 6.32887050 
34.42390000 9.93432000 6.05720545 
35.65590000 10.64340000 5.75486855 
35.65620000 12.06390000 5.46786758 
34.42420000 12.77290000 5.57083739 
34.42480000 14.19360000 5.27945472 
35.65650000 14.90340000 5.00998053 
35.65700000 16.32440000 4.74926972 
34.42530000 17.03390000 4.86319377 
34.42610000 18.45500000 4.63534567 
35.65750000 19.16560000 4.43816943 
35.65810000 20.58700000 4.27385589 
34.42680000 21.29710000 4.42283350 
34.42770000 22.71860000 4.31986368 
35.65870000 23.42990000 4.21908471 
35.65950000 24.85160000 4.20374878 
34.42860000 25.56230000 4.40311587 
34.42960000 26.98400000 4.46665044 
35.66020000 27.69580000 4.48417722 
35.66100000 29.11760000 4.65068160 
34.43060000 29.82850000 4.90262902 
34.43170000 31.25020000 5.15676728 
35.66180000 31.96230000 5.30355404 
35.66260000 33.38380000 5.66942551 
34.43270000 34.09490000 5.97176241 
34.43380000 35.51620000 6.42307692 
35.66340000 36.22830000 6.70350536 
35.66420000 37.64940000 7.26655307 
34.43480000 38.36030000 7.60613437 
34.43580000 39.78100000 8.24367089 
35.66490000 40.49280000 8.65335930 
35.66560000 41.91310000 9.38948393 
34.43670000 42.62370000 9.74440117 
34.43770000 44.04370000 10.53091529 
35.66620000 44.75490000 11.05452775 
35.66690000 46.17450000 11.91333982 
34.43830000 46.88460000 12.24853944 
34.43910000 48.30370000 13.12268744 
35.66730000 49.01430000 13.73174294 
35.66790000 50.43310000 14.63656280 
34.43960000 51.14270000 14.91041870 
34.44020000 52.56120000 15.78237585 
35.66810000 53.27110000 16.43524830 
35.66850000 54.68920000 17.28967868 
34.44050000 55.39850000 17.45837390 
34.44090000 56.81640000 18.22736125 
35.66860000 57.52580000 18.86708861 
35.66890000 58.94360000 19.55939630 
110.68600000 59.65250000 19.57692308 
111.91400000 61.77920000 20.69206426 
36.88760000 0.00018373 6.62463486 
36.88760000 1.42025000 6.63777994 
38.12000000 2.12848000 6.53261928 
38.12000000 3.54858000 6.45813048 
36.88760000 4.25684000 6.50632911 
36.88770000 5.67698000 6.34858812 
38.12000000 6.38545000 6.18646543 
38.12010000 7.80572000 5.96738072 
36.88780000 8.51427000 5.96957157 
36.88800000 9.93467000 5.70447907 
38.12010000 10.64360000 5.52482960 
38.12020000 12.06420000 5.24221032 
36.88820000 12.77330000 5.23563778 
36.88840000 14.19410000 4.95520935 
38.12030000 14.90370000 4.79965920 
38.12050000 16.32470000 4.54552093 
36.88870000 17.03450000 4.56523856 
36.88910000 18.45570000 4.35053554 
38.12070000 19.16600000 4.25413827 
38.12090000 20.58750000 4.09858812 
36.88940000 21.29780000 4.16869523 
36.88990000 22.71940000 4.08106134 
38.12110000 23.43050000 4.06791626 
38.12130000 24.85220000 4.06353457 
36.89040000 25.56310000 4.20155794 
36.89090000 26.98490000 4.28261928 
38.12150000 27.69640000 4.36806232 
38.12180000 29.11820000 4.54771178 
36.89140000 29.82940000 4.76241480 
36.89190000 31.25110000 5.03627069 
38.12200000 31.96290000 5.23125609 
38.12230000 33.38450000 5.61246349 
36.89240000 34.09590000 5.90165531 
36.89300000 35.51720000 6.37925998 
38.12250000 36.22900000 6.68378773 
38.12280000 37.65000000 7.26217137 
36.89350000 38.36120000 7.61927945 
36.89400000 39.78190000 8.28529698 
38.12300000 40.49340000 8.69279455 
38.12330000 41.91370000 9.44644596 
36.89440000 42.62460000 9.85175268 
36.89490000 44.04450000 10.66893866 
38.12350000 44.75550000 11.15968841 
38.12370000 46.17490000 12.04040896 
36.89520000 46.88530000 12.46105161 
36.89560000 48.30430000 13.36806232 
38.12380000 49.01470000 13.90701071 
38.12400000 50.43340000 14.83592989 
36.89590000 51.14320000 15.23028238 
36.89620000 52.56160000 16.13729309 
38.12410000 53.27140000 16.68281402 
38.12420000 54.68940000 17.55915287 
36.89630000 55.39880000 17.88339825 
36.89650000 56.81670000 18.68524830 
38.12430000 57.52600000 19.18476144 
38.12440000 58.94370000 19.89678676 
36.89660000 59.65270000 20.09396300 
36.89670000 61.07030000 20.67234664 
38.12440000 61.77930000 21.06231743 
38.12440000 63.19690000 21.48734177 
113.14200000 63.90570000 21.50705940 
39.35230000 0.00016932 6.50194742 
39.35230000 1.42026000 6.51509250 
40.58470000 2.12848000 6.53919182 
40.58470000 3.54858000 6.46251217 
39.35230000 4.25688000 6.38364167 
39.35230000 5.67705000 6.22809153 
40.58460000 6.38545000 6.19303797 
40.58460000 7.80572000 5.97176241 
39.35230000 8.51436000 5.85126582 
39.35230000 9.93478000 5.59055501 
40.58450000 10.64360000 5.52921130 
40.58440000 12.06420000 5.24878286 
39.35230000 12.77340000 5.12828627 
39.35230000 14.19430000 4.85004869 
40.58430000 14.90370000 4.80404090 
40.58410000 16.32470000 4.54990263 
39.35230000 17.03470000 4.46884129 
39.35230000 18.45590000 4.25632911 
40.58390000 19.16600000 4.25851996 
40.58370000 20.58750000 4.10296981 
39.35230000 21.29810000 4.08544304 
39.35220000 22.71970000 4.00219085 
40.58340000 23.43050000 4.07010711 
40.58320000 24.85220000 4.06572541 
39.35220000 25.56340000 4.13583252 
39.35220000 26.98520000 4.22127556 
40.58290000 27.69640000 4.37025316 
40.58260000 29.11820000 4.54990263 
39.35220000 29.82970000 4.71640701 
39.35220000 31.25140000 4.99683544 
40.58230000 31.96290000 5.23344693 
40.58200000 33.38450000 5.61465433 
39.35220000 34.09620000 5.87974684 
39.35210000 35.51750000 6.36392405 
40.58170000 36.22900000 6.68378773 
40.58140000 37.65000000 7.26217137 
39.35210000 38.36150000 7.62366115 
39.35210000 39.78220000 8.29625122 
40.58120000 40.49340000 8.69060370 
40.58090000 41.91370000 9.44644596 
39.35210000 42.62480000 9.88461538 
39.35210000 44.04470000 10.71494645 
40.58070000 44.75550000 11.15749757 
40.58050000 46.17490000 12.03602726 
39.35210000 46.88550000 12.52896787 
39.35210000 48.30460000 13.44693281 
40.58030000 49.01470000 13.90262902 
40.58010000 50.43340000 14.82935735 
39.35210000 51.14340000 15.33544304 
39.35210000 52.56170000 16.25340798 
40.58000000 53.27140000 16.67843233 
40.57990000 54.68940000 17.55258033 
39.35210000 55.39890000 18.02142162 
39.35200000 56.81670000 18.83422590 
40.57980000 57.52590000 19.17599805 
40.57980000 58.94370000 19.88802337 
39.35210000 59.65270000 20.26484907 
39.35210000 61.07040000 20.85199611 
40.57980000 61.77930000 21.05355404 
40.57970000 63.19690000 21.47638754 
39.35210000 63.90570000 21.69766310 
39.35210000 65.32330000 21.93646543 
41.81700000 0.00019613 6.63777994 
41.81700000 1.42026000 6.65092502 
43.04930000 2.12848000 6.80209348 
43.04920000 3.54852000 6.72541383 
41.81700000 4.25685000 6.51947420 
41.81690000 5.67698000 6.36173320 
43.04910000 6.38533000 6.44936709 
43.04890000 7.80554000 6.22590068 
41.81680000 8.51427000 5.98052580 
41.81660000 9.93466000 5.71543330 
43.04880000 10.64340000 5.77239533 
43.04840000 12.06390000 5.48539435 
41.81650000 12.77330000 5.24659202 
41.81620000 14.19410000 4.96616358 
43.04810000 14.90340000 5.02531646 
43.04760000 16.32430000 4.76460565 
41.81590000 17.03440000 4.57400195 
41.81550000 18.45570000 4.35929893 
43.04700000 19.16560000 4.45131451 
43.04640000 20.58700000 4.28700097 
41.81510000 21.29780000 4.17745862 
41.81460000 22.71940000 4.08763389 
43.04570000 23.42990000 4.23003895 
43.04500000 24.85160000 4.21470302 
41.81410000 25.56310000 4.20813048 
41.81360000 26.98480000 4.28700097 
43.04420000 27.69580000 4.49294060 
43.04340000 29.11750000 4.65944499 
41.81300000 29.82940000 4.76679649 
41.81240000 31.25110000 5.04065239 
43.04260000 31.96230000 5.30793574 
43.04170000 33.38380000 5.67380721 
41.81190000 34.09580000 5.90384615 
41.81130000 35.51710000 6.37925998 
43.04090000 36.22830000 6.70569620 
43.04010000 37.64930000 7.26655307 
41.81080000 38.36120000 7.61927945 
41.81020000 39.78190000 8.28310613 
43.03940000 40.49280000 8.65116845 
43.03860000 41.91310000 9.38510224 
41.80980000 42.62450000 9.84737098 
41.80930000 44.04440000 10.66455696 
43.03800000 44.75490000 11.04795521 
43.03730000 46.17440000 11.90457644 
41.80890000 46.88520000 12.45447907 
41.80850000 48.30430000 13.35929893 
43.03680000 49.01430000 13.71859786 
43.03630000 50.43300000 14.62122687 
41.80830000 51.14320000 15.22151899 
41.80790000 52.56160000 16.12633885 
43.03600000 53.27110000 16.41553067 
43.03560000 54.68920000 17.26777020 
41.80780000 55.39880000 17.86806232 
41.80760000 56.81670000 18.66991237 
43.03550000 57.52580000 18.84298929 
43.03520000 58.94350000 19.53529698 
41.80750000 59.65270000 20.07643622 
41.80740000 61.07030000 20.65262902 
43.03520000 61.77920000 20.66358325 
43.03510000 63.19680000 21.07327167 
41.80740000 63.90570000 21.48734177 
41.80740000 65.32330000 21.71957157 
44.28140000 0.00026448 7.02775073 
44.28140000 1.42024000 7.04308666 
45.51350000 2.12846000 7.31913340 
45.51340000 3.54839000 7.24026290 
44.28140000 4.25675000 6.90506329 
44.28120000 5.67680000 6.74513145 
45.51330000 6.38510000 6.95326193 
45.51300000 7.80519000 6.72103213 
44.28110000 8.51401000 6.35296981 
44.28070000 9.93432000 6.08130477 
45.51270000 10.64290000 6.24561831 
45.51210000 12.06340000 5.94766310 
44.28040000 12.77290000 5.59055501 
44.27980000 14.19360000 5.30136319 
45.51160000 14.90270000 5.45691334 
45.51070000 16.32360000 5.18086660 
44.27930000 17.03390000 4.88291139 
44.27850000 18.45500000 4.65506329 
45.50990000 19.16470000 4.82814021 
45.50890000 20.58600000 4.64410906 
44.27770000 21.29710000 4.44036027 
44.27680000 22.71860000 4.33519961 
45.50780000 23.42890000 4.54113924 
45.50660000 24.85050000 4.50389484 
44.27590000 25.56220000 4.41626095 
44.27480000 26.98390000 4.47760467 
45.50540000 27.69460000 4.72517040 
45.50410000 29.11630000 4.86538462 
44.27380000 29.82850000 4.91139241 
44.27270000 31.25010000 5.16333982 
45.50280000 31.96100000 5.45034080 
45.50140000 33.38250000 5.78554041 
44.27160000 34.09480000 5.97614411 
44.27050000 35.51610000 6.42745862 
45.50010000 36.22700000 6.74074976 
45.49880000 37.64800000 7.26655307 
44.26950000 38.36020000 7.60613437 
44.26840000 39.78090000 8.24148004 
45.49760000 40.49150000 8.56572541 
45.49630000 41.91190000 9.26022395 
44.26750000 42.62360000 9.73563778 
44.26650000 44.04360000 10.51996105 
45.49540000 44.75380000 10.82667965 
45.49420000 46.17340000 11.63948393 
44.26590000 46.88450000 12.23539435 
44.26500000 48.30370000 13.10516066 
45.49350000 49.01340000 13.35272639 
45.49260000 50.43230000 14.20934761 
44.26450000 51.14270000 14.88851022 
44.26390000 52.56110000 15.76046738 
45.49210000 53.27050000 15.90725414 
45.49140000 54.68870000 16.71786758 
44.26360000 55.39840000 17.42989289 
44.26320000 56.81640000 18.19668939 
45.49120000 57.52540000 18.20545278 
45.49080000 58.94330000 18.86051607 
44.26310000 59.65250000 19.54406037 
44.26280000 61.07020000 20.09615385 
45.49080000 61.77900000 19.92526777 
45.49050000 63.19670000 20.31304771 
44.26290000 63.90560000 20.89143135 
44.26280000 65.32330000 21.11270691 
46.74540000 0.00037035 7.66747809 
46.74540000 1.42021000 7.68281402 
47.97710000 2.12843000 8.07716650 
47.97700000 3.54820000 7.99391431 
46.74530000 4.25660000 7.53821811 
46.74510000 5.67651000 7.37171373 
47.97680000 6.38477000 7.69157741 
47.97640000 7.80470000 7.44839338 
46.74490000 8.51359000 6.95983447 
46.74440000 9.93376000 6.67502434 
47.97600000 10.64230000 6.94230769 
47.97530000 12.06260000 6.62463486 
46.74390000 12.77220000 6.15360273 
46.74310000 14.19270000 5.84469328 
47.97460000 14.90170000 6.09006816 
47.97350000 16.32250000 5.78773126 
46.74230000 17.03290000 5.38461538 
46.74110000 18.45390000 5.13266796 
47.97240000 19.16350000 5.37585200 
47.97100000 20.58460000 5.16553067 
46.74010000 21.29590000 4.86538462 
46.73870000 22.71730000 4.73393379 
47.96960000 23.42740000 4.99026290 
47.96790000 24.84890000 4.91796495 
46.73740000 25.56080000 4.75146056 
46.73590000 26.98250000 4.78213242 
47.96640000 27.69290000 5.05598832 
47.96460000 29.11450000 5.15676728 
46.73440000 29.82690000 5.14143135 
46.73280000 31.24860000 5.35832522 
47.96290000 31.95910000 5.64532619 
47.96100000 33.38060000 5.93451801 
46.73130000 34.09320000 6.08349562 
46.72960000 35.51450000 6.49318403 
47.95930000 36.22510000 6.78018500 
47.95750000 37.64620000 7.25340798 
46.72820000 38.35860000 7.57108082 
46.72660000 39.77940000 8.16041870 
47.95590000 40.48980000 8.42551120 
47.95420000 41.91020000 9.05866602 
46.72540000 42.62220000 9.54284323 
46.72390000 44.04230000 10.27458617 
47.95290000 44.75230000 10.48928919 
47.95140000 46.17200000 11.23855891 
46.72290000 46.88330000 11.86952288 
46.72170000 48.30260000 12.68451801 
47.95040000 49.01220000 12.81158715 
47.94910000 50.43130000 13.60467381 
46.72100000 51.14180000 14.34737098 
46.72010000 52.56040000 15.16455696 
47.94850000 53.26970000 15.17112950 
47.94760000 54.68810000 15.92259007 
46.71970000 55.39790000 16.72444012 
46.71900000 56.81600000 17.44522882 
47.94720000 57.52490000 17.30063291 
47.94660000 58.94300000 17.90968841 
46.71880000 59.65220000 18.70277507 
46.71850000 61.07000000 19.21981500 
47.94650000 61.77870000 18.89337877 
47.94630000 63.19660000 19.25486855 
46.71850000 63.90540000 19.96032132 
46.71830000 65.32320000 20.16845180 
49.20860000 0.00050819 8.54162610 
49.20860000 1.42017000 8.55696203 
50.44000000 2.12840000 9.05866602 
50.43980000 3.54797000 8.97322298 
49.20860000 4.25640000 8.40360273 
49.20830000 5.67613000 8.22833496 
50.43960000 6.38436000 8.64897760 
50.43920000 7.80409000 8.39264849 
49.20800000 8.51305000 7.78797468 
49.20740000 9.93303000 7.48782863 
50.43870000 10.64150000 7.84055501 
50.43780000 12.06160000 7.50097371 
49.20670000 12.77130000 6.91820837 
49.20570000 14.19170000 6.58739046 
50.43690000 14.90060000 6.90287244 
50.43560000 16.32110000 6.57205453 
49.20470000 17.03170000 6.06377799 
49.20330000 18.45250000 5.78334956 
50.43430000 19.16190000 6.07911392 
50.43260000 20.58290000 5.82935735 
49.20190000 21.29430000 5.43719572 
49.20020000 22.71560000 5.27069133 
50.43090000 23.42550000 5.55988315 
50.42890000 24.84680000 5.44376826 
49.19860000 25.55900000 5.19620253 
49.19660000 26.98050000 5.18524830 
50.42700000 27.69070000 5.46786758 
50.42480000 29.11230000 5.51825706 
49.19480000 29.82490000 5.43938656 
49.19280000 31.24650000 5.60808179 
50.42280000 31.95680000 5.87755599 
50.42050000 33.37830000 6.10540409 
49.19090000 34.09110000 6.21056475 
49.18880000 35.51240000 6.56329114 
50.41850000 36.22280000 6.80428432 
50.41630000 37.64390000 7.20740019 
49.18700000 38.35660000 7.50535540 
49.18500000 39.77740000 8.02896787 
50.41440000 40.48760000 8.21738072 
50.41230000 41.90820000 8.77604674 
49.18340000 42.62030000 9.26022395 
49.18160000 44.04050000 9.92185979 
50.41070000 44.75040000 10.03359299 
50.40880000 46.17030000 10.70180136 
49.18030000 46.88180000 11.35686465 
49.17870000 48.30130000 12.09956183 
50.40760000 49.01080000 12.10613437 
50.40610000 50.43000000 12.82473223 
49.17780000 51.14060000 13.61343720 
49.17660000 52.55950000 14.36270691 
50.40520000 53.26860000 14.23782863 
50.40410000 54.68730000 14.92356378 
49.17600000 55.39710000 15.78894839 
49.17510000 56.81550000 16.45496592 
50.40360000 57.52430000 16.17672833 
50.40290000 58.94250000 16.73758520 
49.17490000 59.65170000 17.60954236 
49.17440000 61.06980000 18.08714703 
50.40270000 61.77840000 17.63802337 
50.40240000 63.19650000 17.96884129 
49.17440000 63.90520000 18.76850049 
49.17420000 65.32320000 18.95910419 
51.67100000 0.00067228 9.62828627 
51.67100000 1.42011000 9.64362220 
52.90190000 2.12837000 10.24172347 
52.90170000 3.54770000 10.14970789 
51.67100000 4.25617000 9.47930867 